\* Problem: Testing Problem *\

Maximize
 Uglob: + 0.289999961853027 x1 - 1.31000006198883 x2
 + 0.100000023841858 x3 + 1.70000004768372 x4 + 1.70000004768372 x5
 + 1.70000004768372 x6

Subject To
 c1: 0 x1 = 1
 c2: 0 x1 = 1
 c3: 0 x1 = 1
 c4: 0 x1 = 1
 c5: 0 x1 = 1
 c6: 0 x1 = 1

Bounds
 0 <= x1 <= 1
 0 <= x2 <= 1
 0 <= x3 <= 1
 0 <= x4 <= 1
 0 <= x5 <= 1
 0 <= x6 <= 1

Generals
 x1
 x2
 x3
 x4
 x5
 x6

End
